-336.0 6.0 10.0 1.0 1.0 9.0 2.0 5.0 8.0 6.0 6.0 9.0 1.0 8.0 9.0 5.0 5.0 2.0 4.0 5.0 8.0 1.0 9.0 10.0 2.0 1.0 1.0 3.0 7.0 2.0 0.0 1.0 5.0 10.0 2.0 2.0 5.0 5.0 10.0 0.0 8.0 0.0 6.0 6.0 8.0 10.0 3.0 10.0 5.0 5.0 1.0 0.0 5.0 9.0 1.0 1.0 9.0 9.0 4.0 1.0 3.0 6.0 1.0 1.0 8.0 10.0 4.0 2.0 5.0 9.0 
6.0 -321.0 2.0 7.0 7.0 6.0 4.0 9.0 6.0 4.0 7.0 10.0 2.0 8.0 5.0 9.0 1.0 7.0 3.0 10.0 8.0 6.0 4.0 3.0 1.0 6.0 9.0 2.0 7.0 7.0 6.0 7.0 5.0 2.0 3.0 9.0 10.0 2.0 2.0 6.0 7.0 9.0 4.0 3.0 6.0 8.0 3.0 4.0 7.0 7.0 1.0 4.0 4.0 10.0 9.0 4.0 5.0 6.0 2.0 0.0 0.0 0.0 0.0 0.0 0.0 0.0 0.0 0.0 0.0 0.0 
10.0 2.0 -353.0 8.0 0.0 7.0 6.0 8.0 2.0 9.0 9.0 1.0 5.0 7.0 0.0 10.0 7.0 7.0 8.0 5.0 1.0 9.0 5.0 4.0 1.0 3.0 1.0 2.0 10.0 10.0 1.0 4.0 2.0 0.0 0.0 5.0 1.0 2.0 4.0 6.0 9.0 3.0 9.0 0.0 9.0 1.0 10.0 2.0 7.0 4.0 10.0 10.0 10.0 5.0 5.0 5.0 1.0 7.0 3.0 6.0 9.0 2.0 9.0 3.0 6.0 10.0 3.0 0.0 5.0 8.0 
1.0 7.0 8.0 -309.0 8.0 9.0 3.0 0.0 3.0 2.0 0.0 5.0 0.0 8.0 6.0 5.0 7.0 3.0 4.0 0.0 2.0 2.0 1.0 8.0 1.0 5.0 10.0 0.0 9.0 4.0 4.0 7.0 10.0 1.0 8.0 1.0 7.0 5.0 7.0 1.0 0.0 5.0 5.0 3.0 5.0 9.0 5.0 10.0 2.0 6.0 2.0 5.0 9.0 7.0 9.0 6.0 1.0 10.0 2.0 0.0 3.0 9.0 1.0 3.0 0.0 0.0 9.0 1.0 2.0 8.0 
1.0 7.0 0.0 8.0 -319.0 8.0 0.0 7.0 9.0 6.0 0.0 8.0 0.0 7.0 1.0 3.0 9.0 9.0 9.0 2.0 1.0 5.0 1.0 3.0 5.0 3.0 3.0 10.0 2.0 8.0 4.0 6.0 0.0 1.0 3.0 9.0 5.0 0.0 0.0 8.0 5.0 1.0 8.0 6.0 5.0 0.0 7.0 9.0 7.0 7.0 6.0 10.0 3.0 2.0 2.0 7.0 4.0 8.0 0.0 9.0 8.0 2.0 0.0 5.0 3.0 1.0 9.0 4.0 2.0 8.0 
9.0 6.0 7.0 9.0 8.0 -356.0 8.0 8.0 7.0 4.0 0.0 0.0 0.0 5.0 9.0 6.0 6.0 2.0 3.0 0.0 6.0 0.0 8.0 6.0 6.0 0.0 10.0 7.0 0.0 8.0 5.0 2.0 10.0 8.0 1.0 6.0 7.0 0.0 10.0 10.0 0.0 7.0 7.0 1.0 4.0 7.0 8.0 6.0 9.0 7.0 3.0 5.0 2.0 2.0 7.0 6.0 4.0 4.0 5.0 5.0 7.0 4.0 0.0 8.0 8.0 8.0 4.0 1.0 8.0 2.0 
2.0 4.0 6.0 3.0 0.0 8.0 -333.0 1.0 8.0 1.0 8.0 8.0 7.0 6.0 1.0 3.0 9.0 2.0 7.0 2.0 8.0 5.0 9.0 3.0 4.0 1.0 7.0 5.0 4.0 10.0 9.0 0.0 9.0 9.0 4.0 1.0 2.0 1.0 1.0 5.0 10.0 0.0 3.0 2.0 6.0 7.0 1.0 9.0 6.0 7.0 1.0 2.0 3.0 0.0 4.0 1.0 6.0 9.0 9.0 10.0 9.0 7.0 1.0 0.0 3.0 9.0 1.0 9.0 6.0 9.0 
5.0 9.0 8.0 0.0 7.0 8.0 1.0 -397.0 2.0 5.0 3.0 8.0 2.0 8.0 10.0 8.0 0.0 8.0 7.0 1.0 1.0 3.0 7.0 5.0 8.0 5.0 6.0 1.0 3.0 8.0 3.0 7.0 7.0 7.0 0.0 5.0 7.0 7.0 3.0 8.0 5.0 6.0 9.0 5.0 10.0 6.0 10.0 0.0 8.0 0.0 7.0 9.0 8.0 2.0 9.0 10.0 4.0 4.0 5.0 5.0 8.0 9.0 9.0 8.0 9.0 0.0 10.0 6.0 10.0 5.0 
8.0 6.0 2.0 3.0 9.0 7.0 8.0 2.0 -345.0 2.0 10.0 10.0 0.0 2.0 2.0 1.0 1.0 5.0 4.0 3.0 2.0 3.0 9.0 8.0 3.0 0.0 3.0 5.0 9.0 2.0 5.0 9.0 3.0 9.0 7.0 6.0 8.0 9.0 5.0 10.0 0.0 1.0 10.0 4.0 1.0 1.0 1.0 4.0 2.0 7.0 10.0 8.0 6.0 10.0 7.0 4.0 9.0 4.0 2.0 9.0 3.0 2.0 8.0 0.0 3.0 4.0 6.0 7.0 7.0 5.0 
6.0 4.0 9.0 2.0 6.0 4.0 1.0 5.0 2.0 -397.0 9.0 5.0 9.0 6.0 10.0 0.0 7.0 9.0 8.0 10.0 5.0 7.0 0.0 6.0 4.0 8.0 2.0 7.0 8.0 2.0 6.0 6.0 2.0 2.0 5.0 10.0 10.0 8.0 6.0 5.0 6.0 5.0 4.0 6.0 9.0 4.0 9.0 1.0 6.0 3.0 8.0 2.0 10.0 3.0 6.0 9.0 9.0 1.0 9.0 10.0 0.0 9.0 9.0 1.0 10.0 7.0 3.0 2.0 9.0 6.0 
6.0 7.0 9.0 0.0 0.0 0.0 8.0 3.0 10.0 9.0 -370.0 0.0 0.0 5.0 5.0 2.0 8.0 0.0 8.0 3.0 10.0 5.0 5.0 4.0 7.0 6.0 5.0 8.0 8.0 1.0 3.0 9.0 3.0 6.0 9.0 9.0 5.0 1.0 3.0 1.0 3.0 2.0 8.0 10.0 8.0 7.0 7.0 1.0 0.0 7.0 10.0 4.0 7.0 6.0 7.0 0.0 6.0 3.0 7.0 4.0 9.0 9.0 4.0 5.0 7.0 8.0 4.0 8.0 8.0 10.0 
9.0 10.0 1.0 5.0 8.0 0.0 8.0 8.0 10.0 5.0 0.0 -367.0 6.0 8.0 5.0 4.0 8.0 1.0 9.0 1.0 7.0 2.0 10.0 9.0 10.0 2.0 6.0 0.0 8.0 4.0 0.0 7.0 6.0 8.0 9.0 1.0 1.0 6.0 1.0 9.0 1.0 6.0 4.0 2.0 1.0 0.0 9.0 10.0 7.0 3.0 3.0 2.0 3.0 10.0 9.0 6.0 10.0 6.0 5.0 8.0 9.0 8.0 3.0 3.0 4.0 7.0 1.0 6.0 9.0 0.0 
1.0 2.0 5.0 0.0 0.0 0.0 7.0 2.0 0.0 9.0 0.0 6.0 -324.0 7.0 0.0 3.0 9.0 5.0 3.0 9.0 10.0 0.0 0.0 6.0 9.0 1.0 6.0 7.0 10.0 0.0 3.0 0.0 3.0 1.0 3.0 4.0 2.0 10.0 6.0 8.0 8.0 9.0 9.0 3.0 3.0 6.0 6.0 3.0 9.0 4.0 8.0 3.0 0.0 2.0 10.0 7.0 10.0 1.0 8.0 5.0 8.0 0.0 7.0 3.0 5.0 7.0 7.0 7.0 8.0 1.0 
8.0 8.0 7.0 8.0 7.0 5.0 6.0 8.0 2.0 6.0 5.0 8.0 7.0 -369.0 8.0 3.0 3.0 1.0 1.0 9.0 6.0 4.0 1.0 10.0 7.0 4.0 10.0 0.0 10.0 10.0 6.0 6.0 1.0 6.0 7.0 5.0 8.0 9.0 3.0 0.0 0.0 1.0 3.0 1.0 6.0 2.0 7.0 8.0 5.0 1.0 4.0 4.0 4.0 8.0 1.0 8.0 5.0 3.0 4.0 1.0 6.0 10.0 7.0 7.0 8.0 8.0 5.0 6.0 5.0 8.0 
9.0 5.0 0.0 6.0 1.0 9.0 1.0 10.0 2.0 10.0 5.0 5.0 0.0 8.0 -364.0 0.0 3.0 2.0 5.0 4.0 2.0 6.0 4.0 9.0 4.0 3.0 1.0 0.0 2.0 10.0 4.0 10.0 6.0 2.0 0.0 9.0 9.0 10.0 4.0 1.0 5.0 7.0 7.0 4.0 6.0 8.0 7.0 8.0 1.0 10.0 4.0 10.0 2.0 5.0 10.0 0.0 7.0 8.0 9.0 2.0 6.0 4.0 3.0 5.0 7.0 9.0 10.0 9.0 9.0 1.0 
5.0 9.0 10.0 5.0 3.0 6.0 3.0 8.0 1.0 0.0 2.0 4.0 3.0 3.0 0.0 -327.0 9.0 8.0 5.0 2.0 6.0 5.0 4.0 2.0 5.0 9.0 3.0 7.0 2.0 4.0 6.0 0.0 0.0 3.0 9.0 1.0 10.0 10.0 9.0 8.0 7.0 9.0 3.0 0.0 0.0 0.0 8.0 2.0 10.0 0.0 8.0 3.0 3.0 0.0 9.0 10.0 8.0 5.0 10.0 0.0 10.0 5.0 0.0 2.0 5.0 3.0 6.0 2.0 10.0 0.0 
5.0 1.0 7.0 7.0 9.0 6.0 9.0 0.0 1.0 7.0 8.0 8.0 9.0 3.0 3.0 9.0 -352.0 10.0 4.0 8.0 6.0 9.0 8.0 4.0 3.0 9.0 5.0 2.0 7.0 8.0 10.0 8.0 8.0 7.0 4.0 5.0 0.0 0.0 7.0 4.0 9.0 0.0 4.0 1.0 4.0 4.0 2.0 1.0 10.0 0.0 0.0 9.0 0.0 7.0 0.0 5.0 9.0 10.0 0.0 1.0 10.0 3.0 0.0 5.0 6.0 0.0 10.0 9.0 3.0 2.0 
2.0 7.0 7.0 3.0 9.0 2.0 2.0 8.0 5.0 9.0 0.0 1.0 5.0 1.0 2.0 8.0 10.0 -354.0 10.0 8.0 7.0 2.0 7.0 10.0 9.0 5.0 5.0 1.0 1.0 2.0 2.0 4.0 7.0 10.0 6.0 2.0 8.0 2.0 7.0 0.0 10.0 1.0 0.0 2.0 4.0 3.0 0.0 10.0 5.0 9.0 4.0 8.0 3.0 9.0 10.0 8.0 7.0 10.0 10.0 8.0 2.0 3.0 5.0 1.0 2.0 8.0 3.0 3.0 5.0 5.0 
4.0 3.0 8.0 4.0 9.0 3.0 7.0 7.0 4.0 8.0 8.0 9.0 3.0 1.0 5.0 5.0 4.0 10.0 -339.0 4.0 5.0 10.0 2.0 9.0 0.0 7.0 4.0 6.0 2.0 8.0 4.0 9.0 0.0 10.0 4.0 5.0 2.0 6.0 1.0 7.0 9.0 4.0 5.0 2.0 6.0 0.0 4.0 0.0 4.0 8.0 5.0 3.0 7.0 5.0 4.0 1.0 2.0 10.0 2.0 6.0 2.0 0.0 5.0 0.0 2.0 10.0 10.0 4.0 7.0 5.0 
5.0 10.0 5.0 0.0 2.0 0.0 2.0 1.0 3.0 10.0 3.0 1.0 9.0 9.0 4.0 2.0 8.0 8.0 4.0 -340.0 6.0 5.0 3.0 4.0 0.0 10.0 5.0 8.0 8.0 6.0 0.0 6.0 9.0 7.0 8.0 7.0 3.0 9.0 4.0 0.0 6.0 0.0 10.0 7.0 7.0 6.0 0.0 9.0 2.0 8.0 0.0 5.0 4.0 6.0 5.0 4.0 4.0 2.0 10.0 6.0 2.0 3.0 6.0 8.0 4.0 6.0 7.0 5.0 0.0 4.0 
8.0 8.0 1.0 2.0 1.0 6.0 8.0 1.0 2.0 5.0 10.0 7.0 10.0 6.0 2.0 6.0 6.0 7.0 5.0 6.0 -356.0 3.0 10.0 9.0 1.0 5.0 10.0 6.0 6.0 0.0 4.0 7.0 0.0 3.0 10.0 0.0 4.0 6.0 1.0 1.0 1.0 5.0 5.0 3.0 6.0 10.0 10.0 2.0 6.0 7.0 0.0 3.0 9.0 7.0 9.0 5.0 8.0 3.0 6.0 5.0 10.0 4.0 4.0 1.0 0.0 7.0 9.0 9.0 9.0 0.0 
1.0 6.0 9.0 2.0 5.0 0.0 5.0 3.0 3.0 7.0 5.0 2.0 0.0 4.0 6.0 5.0 9.0 2.0 10.0 5.0 3.0 -346.0 4.0 10.0 6.0 6.0 8.0 0.0 3.0 6.0 3.0 3.0 7.0 0.0 7.0 1.0 7.0 6.0 5.0 3.0 7.0 4.0 3.0 2.0 4.0 5.0 5.0 4.0 7.0 9.0 9.0 10.0 8.0 1.0 6.0 0.0 4.0 6.0 10.0 7.0 9.0 2.0 2.0 3.0 6.0 10.0 9.0 0.0 7.0 10.0 
9.0 4.0 5.0 1.0 1.0 8.0 9.0 7.0 9.0 0.0 5.0 10.0 0.0 1.0 4.0 4.0 8.0 7.0 2.0 3.0 10.0 4.0 -348.0 7.0 9.0 9.0 7.0 3.0 6.0 7.0 10.0 8.0 5.0 8.0 9.0 6.0 5.0 6.0 2.0 2.0 2.0 5.0 9.0 2.0 2.0 3.0 3.0 7.0 6.0 0.0 2.0 1.0 2.0 5.0 3.0 0.0 5.0 4.0 4.0 5.0 10.0 9.0 10.0 1.0 8.0 0.0 0.0 9.0 10.0 1.0 
10.0 3.0 4.0 8.0 3.0 6.0 3.0 5.0 8.0 6.0 4.0 9.0 6.0 10.0 9.0 2.0 4.0 10.0 9.0 4.0 9.0 10.0 7.0 -399.0 3.0 6.0 1.0 0.0 7.0 10.0 0.0 9.0 4.0 10.0 6.0 9.0 9.0 0.0 3.0 9.0 2.0 4.0 10.0 8.0 0.0 6.0 1.0 9.0 2.0 6.0 10.0 8.0 4.0 3.0 9.0 6.0 10.0 10.0 4.0 5.0 4.0 1.0 5.0 3.0 1.0 7.0 5.0 4.0 9.0 8.0 
2.0 1.0 1.0 1.0 5.0 6.0 4.0 8.0 3.0 4.0 7.0 10.0 9.0 7.0 4.0 5.0 3.0 9.0 0.0 0.0 1.0 6.0 9.0 3.0 -325.0 3.0 8.0 10.0 0.0 0.0 4.0 5.0 7.0 7.0 6.0 0.0 4.0 5.0 10.0 7.0 9.0 1.0 3.0 2.0 4.0 1.0 10.0 9.0 10.0 4.0 2.0 4.0 7.0 0.0 5.0 5.0 0.0 3.0 0.0 6.0 1.0 2.0 6.0 6.0 9.0 10.0 1.0 8.0 3.0 10.0 
1.0 6.0 3.0 5.0 3.0 0.0 1.0 5.0 0.0 8.0 6.0 2.0 1.0 4.0 3.0 9.0 9.0 5.0 7.0 10.0 5.0 6.0 9.0 6.0 3.0 -347.0 9.0 0.0 5.0 10.0 9.0 4.0 5.0 9.0 3.0 7.0 6.0 6.0 6.0 1.0 6.0 5.0 2.0 7.0 4.0 3.0 8.0 10.0 2.0 4.0 6.0 10.0 10.0 2.0 10.0 5.0 5.0 10.0 3.0 3.0 2.0 0.0 8.0 2.0 2.0 0.0 7.0 4.0 3.0 7.0 
1.0 9.0 1.0 10.0 3.0 10.0 7.0 6.0 3.0 2.0 5.0 6.0 6.0 10.0 1.0 3.0 5.0 5.0 4.0 5.0 10.0 8.0 7.0 1.0 8.0 9.0 -383.0 5.0 8.0 6.0 9.0 7.0 0.0 3.0 4.0 2.0 10.0 0.0 5.0 9.0 10.0 5.0 7.0 6.0 9.0 9.0 5.0 9.0 6.0 5.0 8.0 8.0 8.0 7.0 9.0 2.0 1.0 7.0 0.0 2.0 3.0 5.0 8.0 4.0 2.0 2.0 0.0 4.0 9.0 10.0 
3.0 2.0 2.0 0.0 10.0 7.0 5.0 1.0 5.0 7.0 8.0 0.0 7.0 0.0 0.0 7.0 2.0 1.0 6.0 8.0 6.0 0.0 3.0 0.0 10.0 0.0 5.0 -318.0 5.0 4.0 1.0 8.0 2.0 6.0 3.0 8.0 8.0 2.0 3.0 3.0 2.0 3.0 5.0 8.0 9.0 9.0 4.0 3.0 6.0 4.0 2.0 6.0 9.0 6.0 0.0 5.0 4.0 3.0 5.0 10.0 3.0 9.0 6.0 1.0 9.0 8.0 5.0 5.0 3.0 8.0 
7.0 7.0 10.0 9.0 2.0 0.0 4.0 3.0 9.0 8.0 8.0 8.0 10.0 10.0 2.0 2.0 7.0 1.0 2.0 8.0 6.0 3.0 6.0 7.0 0.0 5.0 8.0 5.0 -345.0 6.0 2.0 1.0 8.0 3.0 10.0 0.0 2.0 6.0 2.0 9.0 2.0 7.0 3.0 0.0 7.0 3.0 2.0 9.0 4.0 10.0 3.0 8.0 4.0 2.0 2.0 4.0 0.0 6.0 4.0 7.0 9.0 10.0 1.0 1.0 7.0 1.0 7.0 4.0 7.0 5.0 
2.0 7.0 10.0 4.0 8.0 8.0 10.0 8.0 2.0 2.0 1.0 4.0 0.0 10.0 10.0 4.0 8.0 2.0 8.0 6.0 0.0 6.0 7.0 10.0 0.0 10.0 6.0 4.0 6.0 -353.0 3.0 7.0 7.0 1.0 8.0 7.0 0.0 3.0 8.0 3.0 0.0 8.0 7.0 6.0 7.0 4.0 5.0 3.0 9.0 5.0 4.0 8.0 2.0 3.0 3.0 10.0 9.0 1.0 6.0 2.0 6.0 0.0 10.0 8.0 3.0 4.0 1.0 7.0 1.0 1.0 
0.0 6.0 1.0 4.0 4.0 5.0 9.0 3.0 5.0 6.0 3.0 0.0 3.0 6.0 4.0 6.0 10.0 2.0 4.0 0.0 4.0 3.0 10.0 0.0 4.0 9.0 9.0 1.0 2.0 3.0 -348.0 10.0 1.0 7.0 4.0 8.0 9.0 7.0 4.0 8.0 5.0 10.0 10.0 4.0 4.0 7.0 4.0 5.0 2.0 8.0 10.0 3.0 1.0 6.0 10.0 3.0 8.0 4.0 0.0 4.0 9.0 1.0 3.0 9.0 1.0 9.0 4.0 9.0 7.0 4.0 
1.0 7.0 4.0 7.0 6.0 2.0 0.0 7.0 9.0 6.0 9.0 7.0 0.0 6.0 10.0 0.0 8.0 4.0 9.0 6.0 7.0 3.0 8.0 9.0 5.0 4.0 7.0 8.0 1.0 7.0 10.0 -362.0 3.0 7.0 8.0 10.0 2.0 2.0 6.0 5.0 6.0 9.0 10.0 2.0 10.0 4.0 1.0 6.0 6.0 2.0 9.0 3.0 2.0 2.0 5.0 5.0 6.0 1.0 6.0 2.0 5.0 9.0 0.0 7.0 4.0 0.0 10.0 4.0 5.0 1.0 
5.0 5.0 2.0 10.0 0.0 10.0 9.0 7.0 3.0 2.0 3.0 6.0 3.0 1.0 6.0 0.0 8.0 7.0 0.0 9.0 0.0 7.0 5.0 4.0 7.0 5.0 0.0 2.0 8.0 7.0 1.0 3.0 -343.0 2.0 0.0 5.0 8.0 9.0 0.0 7.0 0.0 8.0 0.0 2.0 8.0 5.0 2.0 10.0 4.0 9.0 10.0 9.0 5.0 7.0 5.0 10.0 8.0 3.0 8.0 2.0 5.0 3.0 6.0 0.0 7.0 5.0 9.0 6.0 4.0 7.0 
10.0 2.0 0.0 1.0 1.0 8.0 9.0 7.0 9.0 2.0 6.0 8.0 1.0 6.0 2.0 3.0 7.0 10.0 10.0 7.0 3.0 0.0 8.0 10.0 7.0 9.0 3.0 6.0 3.0 1.0 7.0 7.0 2.0 -353.0 4.0 6.0 3.0 2.0 0.0 9.0 9.0 9.0 7.0 5.0 3.0 2.0 0.0 5.0 1.0 8.0 1.0 2.0 10.0 4.0 0.0 5.0 9.0 10.0 10.0 2.0 8.0 4.0 1.0 3.0 4.0 6.0 8.0 3.0 5.0 10.0 
2.0 3.0 0.0 8.0 3.0 1.0 4.0 0.0 7.0 5.0 9.0 9.0 3.0 7.0 0.0 9.0 4.0 6.0 4.0 8.0 10.0 7.0 9.0 6.0 6.0 3.0 4.0 3.0 10.0 8.0 4.0 8.0 0.0 4.0 -365.0 9.0 8.0 10.0 2.0 9.0 0.0 6.0 0.0 4.0 8.0 8.0 9.0 8.0 6.0 5.0 6.0 6.0 4.0 1.0 7.0 5.0 1.0 10.0 4.0 8.0 6.0 3.0 8.0 3.0 1.0 9.0 7.0 5.0 4.0 1.0 
2.0 9.0 5.0 1.0 9.0 6.0 1.0 5.0 6.0 10.0 9.0 1.0 4.0 5.0 9.0 1.0 5.0 2.0 5.0 7.0 0.0 1.0 6.0 9.0 0.0 7.0 2.0 8.0 0.0 7.0 8.0 10.0 5.0 6.0 9.0 -345.0 5.0 8.0 1.0 8.0 9.0 3.0 7.0 5.0 8.0 4.0 1.0 4.0 5.0 2.0 9.0 0.0 2.0 8.0 9.0 8.0 9.0 1.0 1.0 8.0 4.0 6.0 1.0 1.0 6.0 1.0 6.0 1.0 6.0 8.0 
5.0 10.0 1.0 7.0 5.0 7.0 2.0 7.0 8.0 10.0 5.0 1.0 2.0 8.0 9.0 10.0 0.0 8.0 2.0 3.0 4.0 7.0 5.0 9.0 4.0 6.0 10.0 8.0 2.0 0.0 9.0 2.0 8.0 3.0 8.0 5.0 -355.0 10.0 10.0 0.0 0.0 6.0 1.0 2.0 1.0 9.0 9.0 5.0 8.0 0.0 4.0 9.0 6.0 0.0 4.0 9.0 8.0 1.0 1.0 9.0 0.0 8.0 5.0 0.0 6.0 0.0 4.0 10.0 9.0 1.0 
5.0 2.0 2.0 5.0 0.0 0.0 1.0 7.0 9.0 8.0 1.0 6.0 10.0 9.0 10.0 10.0 0.0 2.0 6.0 9.0 6.0 6.0 6.0 0.0 5.0 6.0 0.0 2.0 6.0 3.0 7.0 2.0 9.0 2.0 10.0 8.0 10.0 -352.0 2.0 0.0 6.0 5.0 1.0 4.0 7.0 5.0 7.0 9.0 2.0 1.0 9.0 7.0 10.0 10.0 3.0 5.0 10.0 2.0 4.0 8.0 0.0 5.0 6.0 4.0 4.0 4.0 9.0 7.0 4.0 2.0 
10.0 2.0 4.0 7.0 0.0 10.0 1.0 3.0 5.0 6.0 3.0 1.0 6.0 3.0 4.0 9.0 7.0 7.0 1.0 4.0 1.0 5.0 2.0 3.0 10.0 6.0 5.0 3.0 2.0 8.0 4.0 6.0 0.0 0.0 2.0 1.0 10.0 2.0 -289.0 10.0 3.0 7.0 4.0 1.0 1.0 9.0 2.0 3.0 0.0 2.0 4.0 6.0 7.0 6.0 0.0 4.0 6.0 2.0 8.0 4.0 0.0 5.0 1.0 4.0 10.0 1.0 1.0 4.0 9.0 2.0 
0.0 6.0 6.0 1.0 8.0 10.0 5.0 8.0 10.0 5.0 1.0 9.0 8.0 0.0 1.0 8.0 4.0 0.0 7.0 0.0 1.0 3.0 2.0 9.0 7.0 1.0 9.0 3.0 9.0 3.0 8.0 5.0 7.0 9.0 9.0 8.0 0.0 0.0 10.0 -326.0 10.0 8.0 1.0 0.0 1.0 5.0 7.0 3.0 5.0 2.0 6.0 3.0 8.0 0.0 1.0 3.0 6.0 5.0 7.0 4.0 8.0 4.0 10.0 2.0 0.0 3.0 0.0 6.0 6.0 2.0 
8.0 7.0 9.0 0.0 5.0 0.0 10.0 5.0 0.0 6.0 3.0 1.0 8.0 0.0 5.0 7.0 9.0 10.0 9.0 6.0 1.0 7.0 2.0 2.0 9.0 6.0 10.0 2.0 2.0 0.0 5.0 6.0 0.0 9.0 0.0 9.0 0.0 6.0 3.0 10.0 -354.0 5.0 8.0 4.0 5.0 10.0 2.0 2.0 10.0 7.0 3.0 5.0 3.0 3.0 4.0 1.0 9.0 0.0 9.0 6.0 5.0 8.0 10.0 7.0 8.0 3.0 0.0 9.0 9.0 2.0 
0.0 9.0 3.0 5.0 1.0 7.0 0.0 6.0 1.0 5.0 2.0 6.0 9.0 1.0 7.0 9.0 0.0 1.0 4.0 0.0 5.0 4.0 5.0 4.0 1.0 5.0 5.0 3.0 7.0 8.0 10.0 9.0 8.0 9.0 6.0 3.0 6.0 5.0 7.0 8.0 5.0 -358.0 7.0 0.0 7.0 5.0 4.0 2.0 6.0 3.0 5.0 7.0 2.0 9.0 10.0 8.0 2.0 5.0 4.0 10.0 7.0 8.0 8.0 0.0 7.0 10.0 5.0 8.0 5.0 5.0 
6.0 4.0 9.0 5.0 8.0 7.0 3.0 9.0 10.0 4.0 8.0 4.0 9.0 3.0 7.0 3.0 4.0 0.0 5.0 10.0 5.0 3.0 9.0 10.0 3.0 2.0 7.0 5.0 3.0 7.0 10.0 10.0 0.0 7.0 0.0 7.0 1.0 1.0 4.0 1.0 8.0 7.0 -375.0 8.0 9.0 10.0 0.0 7.0 2.0 4.0 0.0 10.0 8.0 9.0 8.0 7.0 2.0 4.0 4.0 4.0 0.0 5.0 1.0 6.0 5.0 6.0 6.0 10.0 4.0 8.0 
6.0 3.0 0.0 3.0 6.0 1.0 2.0 5.0 4.0 6.0 10.0 2.0 3.0 1.0 4.0 0.0 1.0 2.0 2.0 7.0 3.0 2.0 2.0 8.0 2.0 7.0 6.0 8.0 0.0 6.0 4.0 2.0 2.0 5.0 4.0 5.0 2.0 4.0 1.0 0.0 4.0 0.0 8.0 -268.0 3.0 10.0 3.0 5.0 8.0 7.0 6.0 5.0 6.0 2.0 8.0 5.0 5.0 3.0 4.0 3.0 0.0 2.0 2.0 6.0 0.0 2.0 0.0 9.0 5.0 6.0 
8.0 6.0 9.0 5.0 5.0 4.0 6.0 10.0 1.0 9.0 8.0 1.0 3.0 6.0 6.0 0.0 4.0 4.0 6.0 7.0 6.0 4.0 2.0 0.0 4.0 4.0 9.0 9.0 7.0 7.0 4.0 10.0 8.0 3.0 8.0 8.0 1.0 7.0 1.0 1.0 5.0 7.0 9.0 3.0 -357.0 5.0 2.0 2.0 5.0 2.0 1.0 0.0 2.0 6.0 4.0 7.0 8.0 6.0 8.0 7.0 9.0 7.0 3.0 9.0 7.0 2.0 5.0 5.0 0.0 10.0 
10.0 8.0 1.0 9.0 0.0 7.0 7.0 6.0 1.0 4.0 7.0 0.0 6.0 2.0 8.0 0.0 4.0 3.0 0.0 6.0 10.0 5.0 3.0 6.0 1.0 3.0 9.0 9.0 3.0 4.0 7.0 4.0 5.0 2.0 8.0 4.0 9.0 5.0 9.0 5.0 10.0 5.0 10.0 10.0 5.0 -371.0 3.0 9.0 3.0 8.0 9.0 2.0 3.0 1.0 9.0 1.0 10.0 1.0 5.0 5.0 6.0 3.0 7.0 6.0 0.0 8.0 7.0 7.0 10.0 8.0 
3.0 3.0 10.0 5.0 7.0 8.0 1.0 10.0 1.0 9.0 7.0 9.0 6.0 7.0 7.0 8.0 2.0 0.0 4.0 0.0 10.0 5.0 3.0 1.0 10.0 8.0 5.0 4.0 2.0 5.0 4.0 1.0 2.0 0.0 9.0 1.0 9.0 7.0 2.0 7.0 2.0 4.0 0.0 3.0 2.0 3.0 -339.0 9.0 7.0 4.0 3.0 9.0 1.0 3.0 6.0 7.0 6.0 9.0 3.0 7.0 1.0 3.0 3.0 0.0 8.0 8.0 9.0 4.0 7.0 6.0 
10.0 4.0 2.0 10.0 9.0 6.0 9.0 0.0 4.0 1.0 1.0 10.0 3.0 8.0 8.0 2.0 1.0 10.0 0.0 9.0 2.0 4.0 7.0 9.0 9.0 10.0 9.0 3.0 9.0 3.0 5.0 6.0 10.0 5.0 8.0 4.0 5.0 9.0 3.0 3.0 2.0 2.0 7.0 5.0 2.0 9.0 9.0 -378.0 5.0 6.0 7.0 1.0 10.0 4.0 1.0 6.0 7.0 10.0 3.0 5.0 4.0 6.0 10.0 3.0 5.0 8.0 7.0 0.0 3.0 1.0 
5.0 7.0 7.0 2.0 7.0 9.0 6.0 8.0 2.0 6.0 0.0 7.0 9.0 5.0 1.0 10.0 10.0 5.0 4.0 2.0 6.0 7.0 6.0 2.0 10.0 2.0 6.0 6.0 4.0 9.0 2.0 6.0 4.0 1.0 6.0 5.0 8.0 2.0 0.0 5.0 10.0 6.0 2.0 8.0 5.0 3.0 7.0 5.0 -349.0 6.0 8.0 9.0 5.0 3.0 7.0 5.0 1.0 1.0 4.0 8.0 5.0 1.0 5.0 1.0 5.0 3.0 4.0 4.0 1.0 8.0 
5.0 7.0 4.0 6.0 7.0 7.0 7.0 0.0 7.0 3.0 7.0 3.0 4.0 1.0 10.0 0.0 0.0 9.0 8.0 8.0 7.0 9.0 0.0 6.0 4.0 4.0 5.0 4.0 10.0 5.0 8.0 2.0 9.0 8.0 5.0 2.0 0.0 1.0 2.0 2.0 7.0 3.0 4.0 7.0 2.0 8.0 4.0 6.0 6.0 -340.0 6.0 2.0 4.0 2.0 4.0 5.0 7.0 3.0 7.0 0.0 0.0 6.0 9.0 0.0 8.0 6.0 6.0 9.0 3.0 10.0 
1.0 1.0 10.0 2.0 6.0 3.0 1.0 7.0 10.0 8.0 10.0 3.0 8.0 4.0 4.0 8.0 0.0 4.0 5.0 0.0 0.0 9.0 2.0 10.0 2.0 6.0 8.0 2.0 3.0 4.0 10.0 9.0 10.0 1.0 6.0 9.0 4.0 9.0 4.0 6.0 3.0 5.0 0.0 6.0 1.0 9.0 3.0 7.0 8.0 6.0 -337.0 7.0 1.0 8.0 7.0 3.0 6.0 10.0 2.0 4.0 4.0 0.0 2.0 4.0 4.0 2.0 0.0 8.0 2.0 6.0 
0.0 4.0 10.0 5.0 10.0 5.0 2.0 9.0 8.0 2.0 4.0 2.0 3.0 4.0 10.0 3.0 9.0 8.0 3.0 5.0 3.0 10.0 1.0 8.0 4.0 10.0 8.0 6.0 8.0 8.0 3.0 3.0 9.0 2.0 6.0 0.0 9.0 7.0 6.0 3.0 5.0 7.0 10.0 5.0 0.0 2.0 9.0 1.0 9.0 2.0 7.0 -362.0 8.0 4.0 4.0 8.0 5.0 0.0 0.0 6.0 0.0 5.0 3.0 3.0 2.0 10.0 8.0 0.0 10.0 9.0 
5.0 4.0 10.0 9.0 3.0 2.0 3.0 8.0 6.0 10.0 7.0 3.0 0.0 4.0 2.0 3.0 0.0 3.0 7.0 4.0 9.0 8.0 2.0 4.0 7.0 10.0 8.0 9.0 4.0 2.0 1.0 2.0 5.0 10.0 4.0 2.0 6.0 10.0 7.0 8.0 3.0 2.0 8.0 6.0 2.0 3.0 1.0 10.0 5.0 4.0 1.0 8.0 -335.0 1.0 2.0 3.0 0.0 6.0 4.0 0.0 6.0 1.0 7.0 3.0 6.0 3.0 7.0 10.0 6.0 6.0 
9.0 10.0 5.0 7.0 2.0 2.0 0.0 2.0 10.0 3.0 6.0 10.0 2.0 8.0 5.0 0.0 7.0 9.0 5.0 6.0 7.0 1.0 5.0 3.0 0.0 2.0 7.0 6.0 2.0 3.0 6.0 2.0 7.0 4.0 1.0 8.0 0.0 10.0 6.0 0.0 3.0 9.0 9.0 2.0 6.0 1.0 3.0 4.0 3.0 2.0 8.0 4.0 1.0 -335.0 8.0 5.0 10.0 6.0 1.0 7.0 8.0 1.0 0.0 10.0 6.0 5.0 7.0 5.0 6.0 7.0 
1.0 9.0 5.0 9.0 2.0 7.0 4.0 9.0 7.0 6.0 7.0 9.0 10.0 1.0 10.0 9.0 0.0 10.0 4.0 5.0 9.0 6.0 3.0 9.0 5.0 10.0 9.0 0.0 2.0 3.0 10.0 5.0 5.0 0.0 7.0 9.0 4.0 3.0 0.0 1.0 4.0 10.0 8.0 8.0 4.0 9.0 6.0 1.0 7.0 4.0 7.0 4.0 2.0 8.0 -367.0 4.0 8.0 5.0 5.0 2.0 1.0 1.0 4.0 5.0 0.0 1.0 6.0 9.0 7.0 3.0 
1.0 4.0 5.0 6.0 7.0 6.0 1.0 10.0 4.0 9.0 0.0 6.0 7.0 8.0 0.0 10.0 5.0 8.0 1.0 4.0 5.0 0.0 0.0 6.0 5.0 5.0 2.0 5.0 4.0 10.0 3.0 5.0 10.0 5.0 5.0 8.0 9.0 5.0 4.0 3.0 1.0 8.0 7.0 5.0 7.0 1.0 7.0 6.0 5.0 5.0 3.0 8.0 3.0 5.0 4.0 -342.0 5.0 0.0 2.0 3.0 10.0 6.0 4.0 8.0 7.0 5.0 0.0 0.0 8.0 8.0 
9.0 5.0 1.0 1.0 4.0 4.0 6.0 4.0 9.0 9.0 6.0 10.0 10.0 5.0 7.0 8.0 9.0 7.0 2.0 4.0 8.0 4.0 5.0 10.0 0.0 5.0 1.0 4.0 0.0 9.0 8.0 6.0 8.0 9.0 1.0 9.0 8.0 10.0 6.0 6.0 9.0 2.0 2.0 5.0 8.0 10.0 6.0 7.0 1.0 7.0 6.0 5.0 0.0 10.0 8.0 5.0 -399.0 7.0 7.0 1.0 4.0 9.0 7.0 2.0 4.0 2.0 10.0 2.0 8.0 8.0 
9.0 6.0 7.0 10.0 8.0 4.0 9.0 4.0 4.0 1.0 3.0 6.0 1.0 3.0 8.0 5.0 10.0 10.0 10.0 2.0 3.0 6.0 4.0 10.0 3.0 10.0 7.0 3.0 6.0 1.0 4.0 1.0 3.0 10.0 10.0 1.0 1.0 2.0 2.0 5.0 0.0 5.0 4.0 3.0 6.0 1.0 9.0 10.0 1.0 3.0 10.0 0.0 6.0 6.0 5.0 0.0 7.0 -341.0 2.0 0.0 7.0 0.0 10.0 0.0 8.0 8.0 2.0 6.0 6.0 4.0 
4.0 2.0 3.0 2.0 0.0 5.0 9.0 5.0 2.0 9.0 7.0 5.0 8.0 4.0 9.0 10.0 0.0 10.0 2.0 10.0 6.0 10.0 4.0 4.0 0.0 3.0 0.0 5.0 4.0 6.0 0.0 6.0 8.0 10.0 4.0 1.0 1.0 4.0 8.0 7.0 9.0 4.0 4.0 4.0 8.0 5.0 3.0 3.0 4.0 7.0 2.0 0.0 4.0 1.0 5.0 2.0 7.0 2.0 -320.0 1.0 1.0 7.0 3.0 5.0 7.0 6.0 3.0 6.0 8.0 2.0 
1.0 0.0 6.0 0.0 9.0 5.0 10.0 5.0 9.0 10.0 4.0 8.0 5.0 1.0 2.0 0.0 1.0 8.0 6.0 6.0 5.0 7.0 5.0 5.0 6.0 3.0 2.0 10.0 7.0 2.0 4.0 2.0 2.0 2.0 8.0 8.0 9.0 8.0 4.0 4.0 6.0 10.0 4.0 3.0 7.0 5.0 7.0 5.0 8.0 0.0 4.0 6.0 0.0 7.0 2.0 3.0 1.0 0.0 1.0 -324.0 0.0 4.0 9.0 9.0 5.0 2.0 6.0 3.0 8.0 0.0 
3.0 0.0 9.0 3.0 8.0 7.0 9.0 8.0 3.0 0.0 9.0 9.0 8.0 6.0 6.0 10.0 10.0 2.0 2.0 2.0 10.0 9.0 10.0 4.0 1.0 2.0 3.0 3.0 9.0 6.0 9.0 5.0 5.0 8.0 6.0 4.0 0.0 0.0 0.0 8.0 5.0 7.0 0.0 0.0 9.0 6.0 1.0 4.0 5.0 0.0 4.0 0.0 6.0 8.0 1.0 10.0 4.0 7.0 1.0 0.0 -362.0 9.0 9.0 9.0 7.0 4.0 8.0 9.0 6.0 7.0 
6.0 0.0 2.0 9.0 2.0 4.0 7.0 9.0 2.0 9.0 9.0 8.0 0.0 10.0 4.0 5.0 3.0 3.0 0.0 3.0 4.0 2.0 9.0 1.0 2.0 0.0 5.0 9.0 10.0 0.0 1.0 9.0 3.0 4.0 3.0 6.0 8.0 5.0 5.0 4.0 8.0 8.0 5.0 2.0 7.0 3.0 3.0 6.0 1.0 6.0 0.0 5.0 1.0 1.0 1.0 6.0 9.0 0.0 7.0 4.0 9.0 -314.0 3.0 7.0 6.0 0.0 2.0 1.0 8.0 10.0 
1.0 0.0 9.0 1.0 0.0 0.0 1.0 9.0 8.0 9.0 4.0 3.0 7.0 7.0 3.0 0.0 0.0 5.0 5.0 6.0 4.0 2.0 10.0 5.0 6.0 8.0 8.0 6.0 1.0 10.0 3.0 0.0 6.0 1.0 8.0 1.0 5.0 6.0 1.0 10.0 10.0 8.0 1.0 2.0 3.0 7.0 3.0 10.0 5.0 9.0 2.0 3.0 7.0 0.0 4.0 4.0 7.0 10.0 3.0 9.0 9.0 3.0 -334.0 5.0 8.0 8.0 3.0 6.0 3.0 3.0 
1.0 0.0 3.0 3.0 5.0 8.0 0.0 8.0 0.0 1.0 5.0 3.0 3.0 7.0 5.0 2.0 5.0 1.0 0.0 8.0 1.0 3.0 1.0 3.0 6.0 2.0 4.0 1.0 1.0 8.0 9.0 7.0 0.0 3.0 3.0 1.0 0.0 4.0 4.0 2.0 7.0 0.0 6.0 6.0 9.0 6.0 0.0 3.0 1.0 0.0 4.0 3.0 3.0 10.0 5.0 8.0 2.0 0.0 5.0 9.0 9.0 7.0 5.0 -268.0 4.0 2.0 2.0 5.0 8.0 8.0 
8.0 0.0 6.0 0.0 3.0 8.0 3.0 9.0 3.0 10.0 7.0 4.0 5.0 8.0 7.0 5.0 6.0 2.0 2.0 4.0 0.0 6.0 8.0 1.0 9.0 2.0 2.0 9.0 7.0 3.0 1.0 4.0 7.0 4.0 1.0 6.0 6.0 4.0 10.0 0.0 8.0 7.0 5.0 0.0 7.0 0.0 8.0 5.0 5.0 8.0 4.0 2.0 6.0 6.0 0.0 7.0 4.0 8.0 7.0 5.0 7.0 6.0 8.0 4.0 -336.0 0.0 5.0 10.0 2.0 2.0 
10.0 0.0 10.0 0.0 1.0 8.0 9.0 0.0 4.0 7.0 8.0 7.0 7.0 8.0 9.0 3.0 0.0 8.0 10.0 6.0 7.0 10.0 0.0 7.0 10.0 0.0 2.0 8.0 1.0 4.0 9.0 0.0 5.0 6.0 9.0 1.0 0.0 4.0 1.0 3.0 3.0 10.0 6.0 2.0 2.0 8.0 8.0 8.0 3.0 6.0 2.0 10.0 3.0 5.0 1.0 5.0 2.0 8.0 6.0 2.0 4.0 0.0 8.0 2.0 0.0 -333.0 3.0 2.0 6.0 6.0 
4.0 0.0 3.0 9.0 9.0 4.0 1.0 10.0 6.0 3.0 4.0 1.0 7.0 5.0 10.0 6.0 10.0 3.0 10.0 7.0 9.0 9.0 0.0 5.0 1.0 7.0 0.0 5.0 7.0 1.0 4.0 10.0 9.0 8.0 7.0 6.0 4.0 9.0 1.0 0.0 0.0 5.0 6.0 0.0 5.0 7.0 9.0 7.0 4.0 6.0 0.0 8.0 7.0 7.0 6.0 0.0 10.0 2.0 3.0 6.0 8.0 2.0 3.0 2.0 5.0 3.0 -350.0 6.0 1.0 8.0 
2.0 0.0 0.0 1.0 4.0 1.0 9.0 6.0 7.0 2.0 8.0 6.0 7.0 6.0 9.0 2.0 9.0 3.0 4.0 5.0 9.0 0.0 9.0 4.0 8.0 4.0 4.0 5.0 4.0 7.0 9.0 4.0 6.0 3.0 5.0 1.0 10.0 7.0 4.0 6.0 9.0 8.0 10.0 9.0 5.0 7.0 4.0 0.0 4.0 9.0 8.0 0.0 10.0 5.0 9.0 0.0 2.0 6.0 6.0 3.0 9.0 1.0 6.0 5.0 10.0 2.0 6.0 -364.0 1.0 10.0 
5.0 0.0 5.0 2.0 2.0 8.0 6.0 10.0 7.0 9.0 8.0 9.0 8.0 5.0 9.0 10.0 3.0 5.0 7.0 0.0 9.0 7.0 10.0 9.0 3.0 3.0 9.0 3.0 7.0 1.0 7.0 5.0 4.0 5.0 4.0 6.0 9.0 4.0 9.0 6.0 9.0 5.0 4.0 5.0 0.0 10.0 7.0 3.0 1.0 3.0 2.0 10.0 6.0 6.0 7.0 8.0 8.0 6.0 8.0 8.0 6.0 8.0 3.0 8.0 2.0 6.0 1.0 1.0 -399.0 10.0 
9.0 0.0 8.0 8.0 8.0 2.0 9.0 5.0 5.0 6.0 10.0 0.0 1.0 8.0 1.0 0.0 2.0 5.0 5.0 4.0 0.0 10.0 1.0 8.0 10.0 7.0 10.0 8.0 5.0 1.0 4.0 1.0 7.0 10.0 1.0 8.0 1.0 2.0 2.0 2.0 2.0 5.0 8.0 6.0 10.0 8.0 6.0 1.0 8.0 10.0 6.0 9.0 6.0 7.0 3.0 8.0 8.0 4.0 2.0 0.0 7.0 10.0 3.0 8.0 2.0 6.0 8.0 10.0 10.0 -375.0 

